c sat-tatami-mutilated 10 10
c file created by SAT-TO-DIMACS Wed Jul  8 08:17:39 2015
c 10H8 -> 176
c 10H7 -> 175
c 10H6 -> 174
c 10H5 -> 173
c 10H4 -> 172
c 10H3 -> 171
c 10H2 -> 170
c 10H1 -> 169
c 9V9 -> 168
c 9H9 -> 167
c 9V8 -> 166
c 9H8 -> 165
c 9V7 -> 164
c 9H7 -> 163
c 9V6 -> 162
c 9H6 -> 161
c 9V5 -> 160
c 9H5 -> 159
c 9V4 -> 158
c 9H4 -> 157
c 9V3 -> 156
c 9H3 -> 155
c 9V2 -> 154
c 9H2 -> 153
c 9V1 -> 152
c 9H1 -> 151
c 8V10 -> 150
c 8V9 -> 149
c 8H9 -> 148
c 8V8 -> 147
c 8H8 -> 146
c 8V7 -> 145
c 8H7 -> 144
c 8V6 -> 143
c 8H6 -> 142
c 8V5 -> 141
c 8H5 -> 140
c 8V4 -> 139
c 8H4 -> 138
c 8V3 -> 137
c 8H3 -> 136
c 8V2 -> 135
c 8H2 -> 134
c 8V1 -> 133
c 8H1 -> 132
c 7V10 -> 131
c 7V9 -> 130
c 7H9 -> 129
c 7V8 -> 128
c 7H8 -> 127
c 7V7 -> 126
c 7H7 -> 125
c 7V6 -> 124
c 7H6 -> 123
c 7V5 -> 122
c 7H5 -> 121
c 7V4 -> 120
c 7H4 -> 119
c 7V3 -> 118
c 7H3 -> 117
c 7V2 -> 116
c 7H2 -> 115
c 7V1 -> 114
c 7H1 -> 113
c 6V10 -> 112
c 6V9 -> 111
c 6H9 -> 110
c 6V8 -> 109
c 6H8 -> 108
c 6V7 -> 107
c 6H7 -> 106
c 6V6 -> 105
c 6H6 -> 104
c 6V5 -> 103
c 6H5 -> 102
c 6V4 -> 101
c 6H4 -> 100
c 6V3 -> 99
c 6H3 -> 98
c 6V2 -> 97
c 6H2 -> 96
c 6V1 -> 95
c 6H1 -> 94
c 5V10 -> 93
c 5V9 -> 92
c 5H9 -> 91
c 5V8 -> 90
c 5H8 -> 89
c 5V7 -> 88
c 5H7 -> 87
c 5V6 -> 86
c 5H6 -> 85
c 5V5 -> 84
c 5H5 -> 83
c 5V4 -> 82
c 5H4 -> 81
c 5V3 -> 80
c 5H3 -> 79
c 5V2 -> 78
c 5H2 -> 77
c 5V1 -> 76
c 5H1 -> 75
c 4V10 -> 74
c 4V9 -> 73
c 4H9 -> 72
c 4V8 -> 71
c 4H8 -> 70
c 4V7 -> 69
c 4H7 -> 68
c 4V6 -> 67
c 4H6 -> 66
c 4V5 -> 65
c 4H5 -> 64
c 4V4 -> 63
c 4H4 -> 62
c 4V3 -> 61
c 4H3 -> 60
c 4V2 -> 59
c 4H2 -> 58
c 4V1 -> 57
c 4H1 -> 56
c 3V10 -> 55
c 3V9 -> 54
c 3H9 -> 53
c 3V8 -> 52
c 3H8 -> 51
c 3V7 -> 50
c 3H7 -> 49
c 3V6 -> 48
c 3H6 -> 47
c 3V5 -> 46
c 3H5 -> 45
c 3V4 -> 44
c 3H4 -> 43
c 3V3 -> 42
c 3H3 -> 41
c 3V2 -> 40
c 3H2 -> 39
c 3V1 -> 38
c 3H1 -> 37
c 2V10 -> 36
c 2V9 -> 35
c 2H9 -> 34
c 2V8 -> 33
c 2H8 -> 32
c 2V7 -> 31
c 2H7 -> 30
c 2V6 -> 29
c 2H6 -> 28
c 2V5 -> 27
c 2H5 -> 26
c 2V4 -> 25
c 2H4 -> 24
c 2V3 -> 23
c 2H3 -> 22
c 2V2 -> 21
c 2H2 -> 20
c 2V1 -> 19
c 2H1 -> 18
c 1V10 -> 17
c 1V9 -> 16
c 1H9 -> 15
c 1V8 -> 14
c 1H8 -> 13
c 1V7 -> 12
c 1H7 -> 11
c 1V6 -> 10
c 1H6 -> 9
c 1V5 -> 8
c 1H5 -> 7
c 1V4 -> 6
c 1H4 -> 5
c 1V3 -> 4
c 1H3 -> 3
c 1V2 -> 2
c 1H2 -> 1
p cnf 176 572
 168 176 0
 -168 -176 0
 166 175 176 0
 -166 -175 0
 -166 -176 0
 -175 -176 0
 164 174 175 0
 -164 -174 0
 -164 -175 0
 -174 -175 0
 162 173 174 0
 -162 -173 0
 -162 -174 0
 -173 -174 0
 160 172 173 0
 -160 -172 0
 -160 -173 0
 -172 -173 0
 158 171 172 0
 -158 -171 0
 -158 -172 0
 -171 -172 0
 156 170 171 0
 -156 -170 0
 -156 -171 0
 -170 -171 0
 154 169 170 0
 -154 -169 0
 -154 -170 0
 -169 -170 0
 152 169 0
 -152 -169 0
 150 167 0
 -150 -167 0
 149 168 165 167 0
 -149 -168 0
 -149 -165 0
 -168 -165 0
 -149 -167 0
 -168 -167 0
 -165 -167 0
 147 166 163 165 0
 -147 -166 0
 -147 -163 0
 -166 -163 0
 -147 -165 0
 -166 -165 0
 -163 -165 0
 145 164 161 163 0
 -145 -164 0
 -145 -161 0
 -164 -161 0
 -145 -163 0
 -164 -163 0
 -161 -163 0
 143 162 159 161 0
 -143 -162 0
 -143 -159 0
 -162 -159 0
 -143 -161 0
 -162 -161 0
 -159 -161 0
 141 160 157 159 0
 -141 -160 0
 -141 -157 0
 -160 -157 0
 -141 -159 0
 -160 -159 0
 -157 -159 0
 139 158 155 157 0
 -139 -158 0
 -139 -155 0
 -158 -155 0
 -139 -157 0
 -158 -157 0
 -155 -157 0
 137 156 153 155 0
 -137 -156 0
 -137 -153 0
 -156 -153 0
 -137 -155 0
 -156 -155 0
 -153 -155 0
 135 154 151 153 0
 -135 -154 0
 -135 -151 0
 -154 -151 0
 -135 -153 0
 -154 -153 0
 -151 -153 0
 133 152 151 0
 -133 -152 0
 -133 -151 0
 -152 -151 0
 131 150 148 0
 -131 -150 0
 -131 -148 0
 -150 -148 0
 130 149 146 148 0
 -130 -149 0
 -130 -146 0
 -149 -146 0
 -130 -148 0
 -149 -148 0
 -146 -148 0
 128 147 144 146 0
 -128 -147 0
 -128 -144 0
 -147 -144 0
 -128 -146 0
 -147 -146 0
 -144 -146 0
 126 145 142 144 0
 -126 -145 0
 -126 -142 0
 -145 -142 0
 -126 -144 0
 -145 -144 0
 -142 -144 0
 124 143 140 142 0
 -124 -143 0
 -124 -140 0
 -143 -140 0
 -124 -142 0
 -143 -142 0
 -140 -142 0
 122 141 138 140 0
 -122 -141 0
 -122 -138 0
 -141 -138 0
 -122 -140 0
 -141 -140 0
 -138 -140 0
 120 139 136 138 0
 -120 -139 0
 -120 -136 0
 -139 -136 0
 -120 -138 0
 -139 -138 0
 -136 -138 0
 118 137 134 136 0
 -118 -137 0
 -118 -134 0
 -137 -134 0
 -118 -136 0
 -137 -136 0
 -134 -136 0
 116 135 132 134 0
 -116 -135 0
 -116 -132 0
 -135 -132 0
 -116 -134 0
 -135 -134 0
 -132 -134 0
 114 133 132 0
 -114 -133 0
 -114 -132 0
 -133 -132 0
 112 131 129 0
 -112 -131 0
 -112 -129 0
 -131 -129 0
 111 130 127 129 0
 -111 -130 0
 -111 -127 0
 -130 -127 0
 -111 -129 0
 -130 -129 0
 -127 -129 0
 109 128 125 127 0
 -109 -128 0
 -109 -125 0
 -128 -125 0
 -109 -127 0
 -128 -127 0
 -125 -127 0
 107 126 123 125 0
 -107 -126 0
 -107 -123 0
 -126 -123 0
 -107 -125 0
 -126 -125 0
 -123 -125 0
 105 124 121 123 0
 -105 -124 0
 -105 -121 0
 -124 -121 0
 -105 -123 0
 -124 -123 0
 -121 -123 0
 103 122 119 121 0
 -103 -122 0
 -103 -119 0
 -122 -119 0
 -103 -121 0
 -122 -121 0
 -119 -121 0
 101 120 117 119 0
 -101 -120 0
 -101 -117 0
 -120 -117 0
 -101 -119 0
 -120 -119 0
 -117 -119 0
 99 118 115 117 0
 -99 -118 0
 -99 -115 0
 -118 -115 0
 -99 -117 0
 -118 -117 0
 -115 -117 0
 97 116 113 115 0
 -97 -116 0
 -97 -113 0
 -116 -113 0
 -97 -115 0
 -116 -115 0
 -113 -115 0
 95 114 113 0
 -95 -114 0
 -95 -113 0
 -114 -113 0
 93 112 110 0
 -93 -112 0
 -93 -110 0
 -112 -110 0
 92 111 108 110 0
 -92 -111 0
 -92 -108 0
 -111 -108 0
 -92 -110 0
 -111 -110 0
 -108 -110 0
 90 109 106 108 0
 -90 -109 0
 -90 -106 0
 -109 -106 0
 -90 -108 0
 -109 -108 0
 -106 -108 0
 88 107 104 106 0
 -88 -107 0
 -88 -104 0
 -107 -104 0
 -88 -106 0
 -107 -106 0
 -104 -106 0
 86 105 102 104 0
 -86 -105 0
 -86 -102 0
 -105 -102 0
 -86 -104 0
 -105 -104 0
 -102 -104 0
 84 103 100 102 0
 -84 -103 0
 -84 -100 0
 -103 -100 0
 -84 -102 0
 -103 -102 0
 -100 -102 0
 82 101 98 100 0
 -82 -101 0
 -82 -98 0
 -101 -98 0
 -82 -100 0
 -101 -100 0
 -98 -100 0
 80 99 96 98 0
 -80 -99 0
 -80 -96 0
 -99 -96 0
 -80 -98 0
 -99 -98 0
 -96 -98 0
 78 97 94 96 0
 -78 -97 0
 -78 -94 0
 -97 -94 0
 -78 -96 0
 -97 -96 0
 -94 -96 0
 76 95 94 0
 -76 -95 0
 -76 -94 0
 -95 -94 0
 74 93 91 0
 -74 -93 0
 -74 -91 0
 -93 -91 0
 73 92 89 91 0
 -73 -92 0
 -73 -89 0
 -92 -89 0
 -73 -91 0
 -92 -91 0
 -89 -91 0
 71 90 87 89 0
 -71 -90 0
 -71 -87 0
 -90 -87 0
 -71 -89 0
 -90 -89 0
 -87 -89 0
 69 88 85 87 0
 -69 -88 0
 -69 -85 0
 -88 -85 0
 -69 -87 0
 -88 -87 0
 -85 -87 0
 67 86 83 85 0
 -67 -86 0
 -67 -83 0
 -86 -83 0
 -67 -85 0
 -86 -85 0
 -83 -85 0
 65 84 81 83 0
 -65 -84 0
 -65 -81 0
 -84 -81 0
 -65 -83 0
 -84 -83 0
 -81 -83 0
 63 82 79 81 0
 -63 -82 0
 -63 -79 0
 -82 -79 0
 -63 -81 0
 -82 -81 0
 -79 -81 0
 61 80 77 79 0
 -61 -80 0
 -61 -77 0
 -80 -77 0
 -61 -79 0
 -80 -79 0
 -77 -79 0
 59 78 75 77 0
 -59 -78 0
 -59 -75 0
 -78 -75 0
 -59 -77 0
 -78 -77 0
 -75 -77 0
 57 76 75 0
 -57 -76 0
 -57 -75 0
 -76 -75 0
 55 74 72 0
 -55 -74 0
 -55 -72 0
 -74 -72 0
 54 73 70 72 0
 -54 -73 0
 -54 -70 0
 -73 -70 0
 -54 -72 0
 -73 -72 0
 -70 -72 0
 52 71 68 70 0
 -52 -71 0
 -52 -68 0
 -71 -68 0
 -52 -70 0
 -71 -70 0
 -68 -70 0
 50 69 66 68 0
 -50 -69 0
 -50 -66 0
 -69 -66 0
 -50 -68 0
 -69 -68 0
 -66 -68 0
 48 67 64 66 0
 -48 -67 0
 -48 -64 0
 -67 -64 0
 -48 -66 0
 -67 -66 0
 -64 -66 0
 46 65 62 64 0
 -46 -65 0
 -46 -62 0
 -65 -62 0
 -46 -64 0
 -65 -64 0
 -62 -64 0
 44 63 60 62 0
 -44 -63 0
 -44 -60 0
 -63 -60 0
 -44 -62 0
 -63 -62 0
 -60 -62 0
 42 61 58 60 0
 -42 -61 0
 -42 -58 0
 -61 -58 0
 -42 -60 0
 -61 -60 0
 -58 -60 0
 40 59 56 58 0
 -40 -59 0
 -40 -56 0
 -59 -56 0
 -40 -58 0
 -59 -58 0
 -56 -58 0
 38 57 56 0
 -38 -57 0
 -38 -56 0
 -57 -56 0
 36 55 53 0
 -36 -55 0
 -36 -53 0
 -55 -53 0
 35 54 51 53 0
 -35 -54 0
 -35 -51 0
 -54 -51 0
 -35 -53 0
 -54 -53 0
 -51 -53 0
 33 52 49 51 0
 -33 -52 0
 -33 -49 0
 -52 -49 0
 -33 -51 0
 -52 -51 0
 -49 -51 0
 31 50 47 49 0
 -31 -50 0
 -31 -47 0
 -50 -47 0
 -31 -49 0
 -50 -49 0
 -47 -49 0
 29 48 45 47 0
 -29 -48 0
 -29 -45 0
 -48 -45 0
 -29 -47 0
 -48 -47 0
 -45 -47 0
 27 46 43 45 0
 -27 -46 0
 -27 -43 0
 -46 -43 0
 -27 -45 0
 -46 -45 0
 -43 -45 0
 25 44 41 43 0
 -25 -44 0
 -25 -41 0
 -44 -41 0
 -25 -43 0
 -44 -43 0
 -41 -43 0
 23 42 39 41 0
 -23 -42 0
 -23 -39 0
 -42 -39 0
 -23 -41 0
 -42 -41 0
 -39 -41 0
 21 40 37 39 0
 -21 -40 0
 -21 -37 0
 -40 -37 0
 -21 -39 0
 -40 -39 0
 -37 -39 0
 19 38 37 0
 -19 -38 0
 -19 -37 0
 -38 -37 0
 17 36 34 0
 -17 -36 0
 -17 -34 0
 -36 -34 0
 16 35 32 34 0
 -16 -35 0
 -16 -32 0
 -35 -32 0
 -16 -34 0
 -35 -34 0
 -32 -34 0
 14 33 30 32 0
 -14 -33 0
 -14 -30 0
 -33 -30 0
 -14 -32 0
 -33 -32 0
 -30 -32 0
 12 31 28 30 0
 -12 -31 0
 -12 -28 0
 -31 -28 0
 -12 -30 0
 -31 -30 0
 -28 -30 0
 10 29 26 28 0
 -10 -29 0
 -10 -26 0
 -29 -26 0
 -10 -28 0
 -29 -28 0
 -26 -28 0
 8 27 24 26 0
 -8 -27 0
 -8 -24 0
 -27 -24 0
 -8 -26 0
 -27 -26 0
 -24 -26 0
 6 25 22 24 0
 -6 -25 0
 -6 -22 0
 -25 -22 0
 -6 -24 0
 -25 -24 0
 -22 -24 0
 4 23 20 22 0
 -4 -23 0
 -4 -20 0
 -23 -20 0
 -4 -22 0
 -23 -22 0
 -20 -22 0
 2 21 18 20 0
 -2 -21 0
 -2 -18 0
 -21 -18 0
 -2 -20 0
 -21 -20 0
 -18 -20 0
 19 18 0
 -19 -18 0
 17 15 0
 -17 -15 0
 16 13 15 0
 -16 -13 0
 -16 -15 0
 -13 -15 0
 14 11 13 0
 -14 -11 0
 -14 -13 0
 -11 -13 0
 12 9 11 0
 -12 -9 0
 -12 -11 0
 -9 -11 0
 10 7 9 0
 -10 -7 0
 -10 -9 0
 -7 -9 0
 8 5 7 0
 -8 -5 0
 -8 -7 0
 -5 -7 0
 6 3 5 0
 -6 -3 0
 -6 -5 0
 -3 -5 0
 4 1 3 0
 -4 -1 0
 -4 -3 0
 -1 -3 0
 2 1 0
 -2 -1 0
